WARNING: for repeatability, setting FPU to use double precision
============================[ Problem Statistics ]=============================
|                                                                             |
|  Number of variables:          2329                                         |
|  Number of clauses:           55647                                         |
|  Parse time:                   0.01 s                                       |
|                                                                             |
c ============================[ Search Statistics ]==============================
c | Conflicts |          ORIGINAL         |          LEARNT          | Progress |
c |           |    Vars  Clauses Literals |    Limit  Clauses Lit/Cl |          |
c ===============================================================================
c Switched to VSIDS.
c Switched to LRB.
c Switched to VSIDS.
c Switched to LRB.
c Switched to VSIDS.
c Switched to LRB.
c Switched to VSIDS.
c Switched to LRB.
c Switched to VSIDS.
c Switched to LRB.
c Switched to VSIDS.
c Switched to LRB.
c Switched to VSIDS.
c Switched to LRB.
c ===============================================================================
restarts                  : 22233
conflicts                 : 5130556        (5311 /sec)
decisions                 : 20405351       (0.00 % random) (21124 /sec)
propagations              : 965121846      (999098 /sec)
conflict literals         : 1030889958     (22.76 % deleted)

conflicts w/ DIP found    : 1827846        (35.63 % of conflicts)
conflicts w/ dangerous DIP: 0              (0.00 % of conflicts)
conflicts w/ DIP-learning : 32499          (0.63 % of conflicts)
decisions on ext vars     : 846276         (4.15 % of decisions)
total ext vars            : 1352        
tried delete ext vars     : 2           
deleted ext vars          : 2           
max ext vars              : 1350        

Memory used               : 347.00 MB
CPU time                  : 965.993 s
DIP computation time      : 35.3029 s (3.65 % of total time)
ER_sel time               : 8.05933 s
ER_add time               : 0.006586 s
ER_delC time              : 0 s
ER_delV time              : 0.000105 s
ER_sub time               : 9.46895 s
ER_stat time              : 0 s

UNSATISFIABLE
